C 
 1.0000000000000000
   131.0181911033731126    0.0000000000000000    0.0000000000000000
   -65.5090955516865847  113.4650818534054366    0.0000000000000000
     0.0000000000000000    0.0000000000000000   60.0000000000000000
 C  
 11164
Direct
  0.0107488355428162  0.9888928699390901  0.5000000000000000
  0.0216171025916637  0.9887734384330589  0.5000000000000000
  0.0103905410247224  0.9559297742744537  0.5000000000000000
  0.0212588080735698  0.9558103427684222  0.5000000000000000
  0.0214976710856325  0.9777857398781798  0.5000000000000000
  0.0323659381344800  0.9776663083721487  0.5000000000000000
  0.0326048011465425  0.9996417054819062  0.5000000000000000
  0.0434730681953901  0.9995222739758751  0.5000000000000000
  0.0100322465066285  0.9229666786098172  0.5000000000000000
  0.0209005135554759  0.9228472471037859  0.5000000000000000
  0.0211393765675385  0.9448226442135434  0.5000000000000000
  0.0320076436163859  0.9447032127075121  0.5000000000000000
  0.0322465066284487  0.9666786098172698  0.5000000000000000
  0.0431147736772961  0.9665591783112385  0.5000000000000000
  0.0433536366893588  0.9885345754209962  0.5000000000000000
  0.0542219037382062  0.9884151439149649  0.5000000000000000
  0.0096739519885348  0.8900035829451812  0.5000000000000000
  0.0205422190373821  0.8898841514391498  0.5000000000000000
  0.0207810820494447  0.9118595485489072  0.5000000000000000
  0.0316493490982923  0.9117401170428763  0.5000000000000000
  0.0318882121103548  0.9337155141526334  0.5000000000000000
  0.0427564791592023  0.9335960826466022  0.5000000000000000
  0.0429953421712648  0.9555714797563597  0.5000000000000000
  0.0538636092201123  0.9554520482503285  0.5000000000000000
  0.0541024722321749  0.9774274453600860  0.5000000000000000
  0.0649707392810224  0.9773080138540547  0.5000000000000000
  0.0652096022930849  0.9992834109638123  0.5000000000000000
  0.0760778693419325  0.9991639794577811  0.5000000000000000
  0.0093156574704409  0.8570404872805447  0.5000000000000000
  0.0201839245192882  0.8569210557745133  0.5000000000000000
  0.0204227875313510  0.8788964528842710  0.5000000000000000
  0.0312910545801983  0.8787770213782397  0.5000000000000000
  0.0315299175922610  0.9007524184879973  0.5000000000000000
  0.0423981846411084  0.9006329869819660  0.5000000000000000
  0.0426370476531707  0.9226083840917231  0.5000000000000000
  0.0535053147020183  0.9224889525856920  0.5000000000000000
  0.0537441777140809  0.9444643496954496  0.5000000000000000
  0.0646124447629287  0.9443449181894187  0.5000000000000000
  0.0648513077749913  0.9663203152991761  0.5000000000000000
  0.0757195748238386  0.9662008837931446  0.5000000000000000
  0.0759584378359012  0.9881762809029022  0.5000000000000000
  0.0868267048847486  0.9880568493968708  0.5000000000000000
  0.0089573629523468  0.8240773916159081  0.5000000000000000
  0.0198256300011943  0.8239579601098769  0.5000000000000000
  0.0200644930132569  0.8459333572196345  0.5000000000000000
  0.0309327600621043  0.8458139257136031  0.5000000000000000
  0.0311716230741671  0.8677893228233609  0.5000000000000000
  0.0420398901230144  0.8676698913173295  0.5000000000000000
  0.0422787531350771  0.8896452884270872  0.5000000000000000
  0.0531470201839245  0.8895258569210559  0.5000000000000000
  0.0533858831959875  0.9115012540308137  0.5000000000000000
  0.0642541502448346  0.9113818225247822  0.5000000000000000
  0.0644930132568972  0.9333572196345395  0.5000000000000000
  0.0753612803057448  0.9332377881285085  0.5000000000000000
  0.0756001433178075  0.9552131852382663  0.5000000000000000
  0.0864684103666547  0.9550937537322346  0.5000000000000000
  0.0867072733787173  0.9770691508419920  0.5000000000000000
  0.0975755404275648  0.9769497193359608  0.5000000000000000
  0.0978144034396273  0.9989251164457184  0.5000000000000000
  0.1086826704884749  0.9988056849396871  0.5000000000000000
  0.0085990684342532  0.7911142959512721  0.5000000000000000
  0.0194673354831005  0.7909948644452408  0.5000000000000000
  0.0197061984951630  0.8129702615549981  0.5000000000000000
  0.0305744655440105  0.8128508300489667  0.5000000000000000
  0.0308133285560732  0.8348262271587245  0.5000000000000000
  0.0416815956049203  0.8347067956526929  0.5000000000000000
  0.0419204586169831  0.8566821927624506  0.5000000000000000
  0.0527887256658305  0.8565627612564193  0.5000000000000000
  0.0530275886778933  0.8785381583661770  0.5000000000000000
  0.0638958557267408  0.8784187268601457  0.5000000000000000
  0.0641347187388034  0.9003941239699034  0.5000000000000000
  0.0750029857876509  0.9002746924638720  0.5000000000000000
  0.0752418487997132  0.9222500895736292  0.5000000000000000
  0.0861101158485612  0.9221306580675985  0.5000000000000000
  0.0863489788606236  0.9441060551773560  0.5000000000000000
  0.0972172459094711  0.9439866236713248  0.5000000000000000
  0.0974561089215333  0.9659620207810818  0.5000000000000000
  0.1083243759703813  0.9658425892750512  0.5000000000000000
  0.1085632389824436  0.9878179863848082  0.5000000000000000
  0.1194315060312911  0.9876985548787770  0.5000000000000000
  0.0082407739161592  0.7581512002866357  0.5000000000000000
  0.0191090409650065  0.7580317687806043  0.5000000000000000
  0.0193479039770693  0.7800071658903620  0.5000000000000000
  0.0302161710259168  0.7798877343843307  0.5000000000000000
  0.0304550340379792  0.8018631314940881  0.5000000000000000
  0.0413233010868268  0.8017436999880571  0.5000000000000000
  0.0415621640988893  0.8237190970978143  0.5000000000000000
  0.0524304311477370  0.8235996655917834  0.5000000000000000
  0.0526692941597994  0.8455750627015406  0.5000000000000000
  0.0635375612086469  0.8454556311955094  0.5000000000000000
  0.0637764242207094  0.8674310283052669  0.5000000000000000
  0.0746446912695570  0.8673115967992356  0.5000000000000000
  0.0748835542816196  0.8892869939089932  0.5000000000000000
  0.0857518213304670  0.8891675624029619  0.5000000000000000
  0.0859906843425295  0.9111429595127194  0.5000000000000000
  0.0968589513913772  0.9110235280066883  0.5000000000000000
  0.0970978144034399  0.9329989251164460  0.5000000000000000
  0.1079660814522873  0.9328794936104147  0.5000000000000000
  0.1082049444643499  0.9548548907201722  0.5000000000000000
  0.1190732115131975  0.9547354592141409  0.5000000000000000
  0.1193120745252599  0.9767108563238982  0.5000000000000000
  0.1301803415741073  0.9765914248178669  0.5000000000000000
  0.1304192045861699  0.9985668219276244  0.5000000000000000
  0.1412874716350173  0.9984473904215930  0.5000000000000000
  0.0078824793980652  0.7251881046219992  0.5000000000000000
  0.0187507464469127  0.7250686731159680  0.5000000000000000
  0.0189896094589754  0.7470440702257255  0.5000000000000000
  0.0298578765078230  0.7469246387196944  0.5000000000000000
  0.0300967395198854  0.7689000358294519  0.5000000000000000
  0.0409650065687329  0.7687806043234205  0.5000000000000000
  0.0412038695807956  0.7907560014331783  0.5000000000000000
  0.0520721366296429  0.7906365699271469  0.5000000000000000
  0.0523109996417056  0.8126119670369045  0.5000000000000000
  0.0631792666905530  0.8124925355308733  0.5000000000000000
  0.0634181297026156  0.8344679326406306  0.5000000000000000
  0.0742863967514630  0.8343485011345992  0.5000000000000000
  0.0745252597635258  0.8563238982443570  0.5000000000000000
  0.0853935268123731  0.8562044667383255  0.5000000000000000
  0.0856323898244357  0.8781798638480830  0.5000000000000000
  0.0965006568732831  0.8780604323420517  0.5000000000000000
  0.0967395198853460  0.9000358294518095  0.5000000000000000
  0.1076077869341933  0.8999163979457780  0.5000000000000000
  0.1078466499462560  0.9218917950555358  0.5000000000000000
  0.1187149169951034  0.9217723635495044  0.5000000000000000
  0.1189537800071660  0.9437477606592620  0.5000000000000000
  0.1298220470560137  0.9436283291532308  0.5000000000000000
  0.1300609100680762  0.9656037262629883  0.5000000000000000
  0.1409291771169236  0.9654842947569571  0.5000000000000000
  0.1411680401289861  0.9874596918667145  0.5000000000000000
  0.1520363071778338  0.9873402603606835  0.5000000000000000
  0.0075241848799713  0.6922250089573627  0.5000000000000000
  0.0183924519288188  0.6921055774513315  0.5000000000000000
  0.0186313149408814  0.7140809745610891  0.5000000000000000
  0.0294995819897289  0.7139615430550579  0.5000000000000000
  0.0297384450017914  0.7359369401648153  0.5000000000000000
  0.0406067120506389  0.7358175086587840  0.5000000000000000
  0.0408455750627017  0.7577929057685419  0.5000000000000000
  0.0517138421115489  0.7576734742625103  0.5000000000000000
  0.0519527051236117  0.7796488713722680  0.5000000000000000
  0.0628209721724591  0.7795294398662367  0.5000000000000000
  0.0630598351845219  0.8015048369759944  0.5000000000000000
  0.0739281022333693  0.8013854054699631  0.5000000000000000
  0.0741669652454319  0.8233608025797207  0.5000000000000000
  0.0850352322942790  0.8232413710736890  0.5000000000000000
  0.0852740953063419  0.8452167681834467  0.5000000000000000
  0.0961423623551893  0.8450973366774154  0.5000000000000000
  0.0963812253672520  0.8670727337871731  0.5000000000000000
  0.1072494924160994  0.8669533022811418  0.5000000000000000
  0.1074883554281619  0.8889286993908992  0.5000000000000000
  0.1183566224770099  0.8888092678848685  0.5000000000000000
  0.1185954854890719  0.9107846649946255  0.5000000000000000
  0.1294637525379197  0.9106652334885945  0.5000000000000000
  0.1297026155499821  0.9326406305983519  0.5000000000000000
  0.1405708825988296  0.9325211990923206  0.5000000000000000
  0.1408097456108923  0.9544965962020783  0.5000000000000000
  0.1516780126597398  0.9543771646960471  0.5000000000000000
  0.1519168756718022  0.9763525618058045  0.5000000000000000
  0.1627851427206499  0.9762331302997733  0.5000000000000000
  0.1630240057327123  0.9982085274095306  0.5000000000000000
  0.1738922727815600  0.9980890959034997  0.5000000000000000
  0.0071658903618776  0.6592619132927268  0.5000000000000000
  0.0180341574107249  0.6591424817866953  0.5000000000000000
  0.0182730204227878  0.6811178788964531  0.5000000000000000
  0.0291412874716351  0.6809984473904217  0.5000000000000000
  0.0293801504836978  0.7029738445001794  0.5000000000000000
  0.0402484175325451  0.7028544129941481  0.5000000000000000
  0.0404872805446079  0.7248298101039058  0.5000000000000000
  0.0513555475934551  0.7247103785978740  0.5000000000000000
  0.0515944106055178  0.7466857757076316  0.5000000000000000
  0.0624626776543652  0.7465663442016003  0.5000000000000000
  0.0627015406664278  0.7685417413113579  0.5000000000000000
  0.0735698077152753  0.7684223098053267  0.5000000000000000
  0.0738086707273380  0.7903977069150843  0.5000000000000000
  0.0846769377761854  0.7902782754090529  0.5000000000000000
  0.0849158007882480  0.8122536725188106  0.5000000000000000
  0.0957840678370955  0.8121342410127793  0.5000000000000000
  0.0960229308491581  0.8341096381225369  0.5000000000000000
  0.1068911978980057  0.8339902066165057  0.5000000000000000
  0.1071300609100681  0.8559656037262630  0.5000000000000000
  0.1179983279589157  0.8558461722202318  0.5000000000000000
  0.1182371909709781  0.8778215693299892  0.5000000000000000
  0.1291054580198256  0.8777021378239580  0.5000000000000000
  0.1293443210318883  0.8996775349337155  0.5000000000000000
  0.1402125880807358  0.8995581034276843  0.5000000000000000
  0.1404514510927983  0.9215335005374418  0.5000000000000000
  0.1513197181416457  0.9214140690314104  0.5000000000000000
  0.1515585811537085  0.9433894661411681  0.5000000000000000
  0.1624268482025559  0.9432700346351368  0.5000000000000000
  0.1626657112146187  0.9652454317448945  0.5000000000000000
  0.1735339782634660  0.9651260002388631  0.5000000000000000
  0.1737728412755287  0.9871013973486207  0.5000000000000000
  0.1846411083243762  0.9869819658425896  0.5000000000000000
  0.0068075958437836  0.6262988176280903  0.5000000000000000
  0.0176758628926310  0.6261793861220589  0.5000000000000000
  0.0179147259046937  0.6481547832318165  0.5000000000000000
  0.0287829929535411  0.6480353517257852  0.5000000000000000
  0.0290218559656038  0.6700107488355429  0.5000000000000000
  0.0398901230144512  0.6698913173295116  0.5000000000000000
  0.0401289860265139  0.6918667144392693  0.5000000000000000
  0.0509972530753614  0.6917472829332380  0.5000000000000000
  0.0512361160874240  0.7137226800429955  0.5000000000000000
  0.0621043831362715  0.7136032485369643  0.5000000000000000
  0.0623432461483339  0.7355786456467215  0.5000000000000000
  0.0732115131971815  0.7354592141406903  0.5000000000000000
  0.0734503762092440  0.7574346112504476  0.5000000000000000
  0.0843186432580915  0.7573151797444164  0.5000000000000000
  0.0845575062701541  0.7792905768541740  0.5000000000000000
  0.0954257733190016  0.7791711453481428  0.5000000000000000
  0.0956646363310641  0.8011465424579003  0.5000000000000000
  0.1065329033799117  0.8010271109518691  0.5000000000000000
  0.1067717663919743  0.8230025080616268  0.5000000000000000
  0.1176400334408217  0.8228830765555954  0.5000000000000000
  0.1178788964528844  0.8448584736653530  0.5000000000000000
  0.1287471635017319  0.8447390421593217  0.5000000000000000
  0.1289860265137944  0.8667144392690791  0.5000000000000000
  0.1398542935626421  0.8665950077630481  0.5000000000000000
  0.1400931565747048  0.8885704048728058  0.5000000000000000
  0.1509614236235519  0.8884509733667741  0.5000000000000000
  0.1512002866356145  0.9104263704765316  0.5000000000000000
  0.1620685536844620  0.9103069389705004  0.5000000000000000
  0.1623074166965248  0.9322823360802581  0.5000000000000000
  0.1731756837453722  0.9321629045742268  0.5000000000000000
  0.1734145467574347  0.9541383016839843  0.5000000000000000
  0.1842828138062824  0.9540188701779532  0.5000000000000000
  0.1845216768183448  0.9759942672877107  0.5000000000000000
  0.1953899438671922  0.9758748357816793  0.5000000000000000
  0.1956288068792548  0.9978502328914369  0.5000000000000000
  0.2064970739281023  0.9977308013854057  0.5000000000000000
  0.0064493013256898  0.5933357219634539  0.5000000000000000
  0.0173175683745374  0.5932162904574230  0.5000000000000000
  0.0175564313865997  0.6151916875671801  0.5000000000000000
  0.0284246984354473  0.6150722560611489  0.5000000000000000
  0.0286635614475099  0.6370476531709064  0.5000000000000000
  0.0395318284963573  0.6369282216648751  0.5000000000000000
  0.0397706915084199  0.6589036187746327  0.5000000000000000
  0.0506389585572674  0.6587841872686014  0.5000000000000000
  0.0508778215693301  0.6807595843783590  0.5000000000000000
  0.0617460886181775  0.6806401528723277  0.5000000000000000
  0.0619849516302401  0.7026155499820853  0.5000000000000000
  0.0728532186790877  0.7024961184760541  0.5000000000000000
  0.0730920816911502  0.7244715155858117  0.5000000000000000
  0.0839603487399977  0.7243520840797805  0.5000000000000000
  0.0841992117520606  0.7463274811895382  0.5000000000000000
  0.0950674788009076  0.7462080496835064  0.5000000000000000
  0.0953063418129703  0.7681834467932641  0.5000000000000000
  0.1061746088618177  0.7680640152872328  0.5000000000000000
  0.1064134718738805  0.7900394123969905  0.5000000000000000
  0.1172817389227277  0.7899199808909589  0.5000000000000000
  0.1175206019347905  0.8118953780007165  0.5000000000000000
  0.1283888689836379  0.8117759464946852  0.5000000000000000
  0.1286277319957005  0.8337513436044429  0.5000000000000000
  0.1394959990445479  0.8336319120984116  0.5000000000000000
  0.1397348620566106  0.8556073092081693  0.5000000000000000
  0.1506031291054581  0.8554878777021381  0.5000000000000000
  0.1508419921175207  0.8774632748118956  0.5000000000000000
  0.1617102591663684  0.8773438433058645  0.5000000000000000
  0.1619491221784307  0.8993192404156216  0.5000000000000000
  0.1728173892272784  0.8991998089095906  0.5000000000000000
  0.1730562522393408  0.9211752060193478  0.5000000000000000
  0.1839245192881883  0.9210557745133165  0.5000000000000000
  0.1841633823002506  0.9430311716230740  0.5000000000000000
  0.1950316493490983  0.9429117401170428  0.5000000000000000
  0.1952705123611610  0.9648871372268004  0.5000000000000000
  0.2061387794100084  0.9647677057207691  0.5000000000000000
  0.2063776424220712  0.9867431028305269  0.5000000000000000
  0.2172459094709185  0.9866236713244955  0.5000000000000000
  0.0060910068075959  0.5603726262988176  0.5000000000000000
  0.0169592738564433  0.5602531947927862  0.5000000000000000
  0.0171981368685060  0.5822285919025441  0.5000000000000000
  0.0280664039173536  0.5821091603965127  0.5000000000000000
  0.0283052669294159  0.6040845575062701  0.5000000000000000
  0.0391735339782636  0.6039651260002391  0.5000000000000000
  0.0394123969903261  0.6259405231099964  0.5000000000000000
  0.0502806640391736  0.6258210916039652  0.5000000000000000
  0.0505195270512362  0.6477964887137226  0.5000000000000000
  0.0613877941000836  0.6476770572076913  0.5000000000000000
  0.0616266571121463  0.6696524543174490  0.5000000000000000
  0.0724949241609937  0.6695330228114177  0.5000000000000000
  0.0727337871730563  0.6915084199211753  0.5000000000000000
  0.0836020542219037  0.6913889884151438  0.5000000000000000
  0.0838409172339666  0.7133643855249017  0.5000000000000000
  0.0947091842828140  0.7132449540188703  0.5000000000000000
  0.0949480472948766  0.7352203511286279  0.5000000000000000
  0.1058163143437239  0.7351009196225966  0.5000000000000000
  0.1060551773557865  0.7570763167323540  0.5000000000000000
  0.1169234444046343  0.7569568852263231  0.5000000000000000
  0.1171623074166965  0.7789322823360803  0.5000000000000000
  0.1280305744655443  0.7788128508300494  0.5000000000000000
  0.1282694374776066  0.8007882479398065  0.5000000000000000
  0.1391377045264541  0.8006688164337753  0.5000000000000000
  0.1393765675385167  0.8226442135435328  0.5000000000000000
  0.1502448345873641  0.8225247820375013  0.5000000000000000
  0.1504836975994268  0.8445001791472591  0.5000000000000000
  0.1613519646482745  0.8443807476412279  0.5000000000000000
  0.1615908276603367  0.8663561447509853  0.5000000000000000
  0.1724590947091844  0.8662367132449542  0.5000000000000000
  0.1726979577212470  0.8882121103547118  0.5000000000000000
  0.1835662247700945  0.8880926788486805  0.5000000000000000
  0.1838050877821574  0.9100680759584382  0.5000000000000000
  0.1946733548310046  0.9099486444524068  0.5000000000000000
  0.1949122178430672  0.9319240415621642  0.5000000000000000
  0.2057804848919145  0.9318046100561328  0.5000000000000000
  0.2060193479039773  0.9537800071658905  0.5000000000000000
  0.2168876149528246  0.9536605756598591  0.5000000000000000
  0.2171264779648873  0.9756359727696167  0.5000000000000000
  0.2279947450137346  0.9755165412635852  0.5000000000000000
  0.2282336080257973  0.9974919383733430  0.5000000000000000
  0.2391018750746449  0.9973725068673117  0.5000000000000000
  0.0057327122895020  0.5274095306341814  0.5000000000000000
  0.0166009793383494  0.5272900991281499  0.5000000000000000
  0.0168398423504121  0.5492654962379075  0.5000000000000000
  0.0277081093992595  0.5491460647318762  0.5000000000000000
  0.0279469724113223  0.5711214618416340  0.5000000000000000
  0.0388152394601696  0.5710020303356026  0.5000000000000000
  0.0390541024722324  0.5929774274453603  0.5000000000000000
  0.0499223695210797  0.5928579959393290  0.5000000000000000
  0.0501612325331422  0.6148333930490864  0.5000000000000000
  0.0610294995819898  0.6147139615430552  0.5000000000000000
  0.0612683625940523  0.6366893586528125  0.5000000000000000
  0.0721366296428996  0.6365699271467811  0.5000000000000000
  0.0723754926549623  0.6585453242565388  0.5000000000000000
  0.0832437597038098  0.6584258927505076  0.5000000000000000
  0.0834826227158725  0.6804012898602650  0.5000000000000000
  0.0943508897647200  0.6802818583542338  0.5000000000000000
  0.0945897527767827  0.7022572554639914  0.5000000000000000
  0.1054580198256300  0.7021378239579601  0.5000000000000000
  0.1056968828376927  0.7241132210677178  0.5000000000000000
  0.1165651498865401  0.7239937895616865  0.5000000000000000
  0.1168040128986027  0.7459691866714441  0.5000000000000000
  0.1276722799474501  0.7458497551654127  0.5000000000000000
  0.1279111429595126  0.7678251522751701  0.5000000000000000
  0.1387794100083602  0.7677057207691391  0.5000000000000000
  0.1390182730204227  0.7896811178788963  0.5000000000000000
  0.1498865400692703  0.7895616863728652  0.5000000000000000
  0.1501254030813331  0.8115370834826229  0.5000000000000000
  0.1609936701301803  0.8114176519765913  0.5000000000000000
  0.1612325331422431  0.8333930490863491  0.5000000000000000
  0.1721008001910904  0.8332736175803177  0.5000000000000000
  0.1723396632031532  0.8552490146900754  0.5000000000000000
  0.1832079302520006  0.8551295831840440  0.5000000000000000
  0.1834467932640632  0.8771049802938017  0.5000000000000000
  0.1943150603129107  0.8769855487877704  0.5000000000000000
  0.1945539233249731  0.8989609458975280  0.5000000000000000
  0.2054221903738208  0.8988415143914967  0.5000000000000000
  0.2056610533858833  0.9208169115012540  0.5000000000000000
  0.2165293204347309  0.9206974799952230  0.5000000000000000
  0.2167681834467932  0.9426728771049803  0.5000000000000000
  0.2276364504956411  0.9425534455989495  0.5000000000000000
  0.2278753135077033  0.9645288427087064  0.5000000000000000
  0.2387435805565510  0.9644094112026753  0.5000000000000000
  0.2389824435686135  0.9863848083124328  0.5000000000000000
  0.2498507106174610  0.9862653768064016  0.5000000000000000
  0.0053744177714081  0.4944464349695450  0.5000000000000000
  0.0162426848202556  0.4943270034635138  0.5000000000000000
  0.0164815478323182  0.5163024005732711  0.5000000000000000
  0.0273498148811656  0.5161829690672398  0.5000000000000000
  0.0275886778932283  0.5381583661769975  0.5000000000000000
  0.0384569449420755  0.5380389346709659  0.5000000000000000
  0.0386958079541383  0.5600143317807237  0.5000000000000000
  0.0495640750029857  0.5598949002746922  0.5000000000000000
  0.0498029380150484  0.5818702973844501  0.5000000000000000
  0.0606712050638959  0.5817508658784187  0.5000000000000000
  0.0609100680759585  0.6037262629881764  0.5000000000000000
  0.0717783351248061  0.6036068314821451  0.5000000000000000
  0.0720171981368685  0.6255822285919025  0.5000000000000000
  0.0828854651857160  0.6254627970858712  0.5000000000000000
  0.0831243281977786  0.6474381941956288  0.5000000000000000
  0.0939925952466261  0.6473187626895974  0.5000000000000000
  0.0942314582586886  0.6692941597993550  0.5000000000000000
  0.1050997253075361  0.6691747282933238  0.5000000000000000
  0.1053385883195987  0.6911501254030813  0.5000000000000000
  0.1162068553684462  0.6910306938970501  0.5000000000000000
  0.1164457183805088  0.7130060910068076  0.5000000000000000
  0.1273139854293563  0.7128866595007762  0.5000000000000000
  0.1275528484414189  0.7348620566105339  0.5000000000000000
  0.1384211154902663  0.7347426251045026  0.5000000000000000
  0.1386599785023291  0.7567180222142603  0.5000000000000000
  0.1495282455511764  0.7565985907082290  0.5000000000000000
  0.1497671085632392  0.7785739878179866  0.5000000000000000
  0.1606353756120864  0.7784545563119549  0.5000000000000000
  0.1608742386241491  0.8004299534217125  0.5000000000000000
  0.1717425056729965  0.8003105219156812  0.5000000000000000
  0.1719813686850592  0.8222859190254388  0.5000000000000000
  0.1828496357339068  0.8221664875194077  0.5000000000000000
  0.1830884987459693  0.8441418846291652  0.5000000000000000
  0.1939567657948169  0.8440224531231341  0.5000000000000000
  0.1941956288068794  0.8659978502328914  0.5000000000000000
  0.2050638958557270  0.8658784187268603  0.5000000000000000
  0.2053027588677896  0.8878538158366178  0.5000000000000000
  0.2161710259166370  0.8877343843305865  0.5000000000000000
  0.2164098889286996  0.9097097814403441  0.5000000000000000
  0.2272781559775472  0.9095903499343130  0.5000000000000000
  0.2275170189896095  0.9315657470440701  0.5000000000000000
  0.2383852860384572  0.9314463155380391  0.5000000000000000
  0.2386241490505195  0.9534217126477964  0.5000000000000000
  0.2494924160993670  0.9533022811417652  0.5000000000000000
  0.2497312791114297  0.9752776782515228  0.5000000000000000
  0.2605995461602771  0.9751582467454915  0.5000000000000000
  0.2608384091723397  0.9971336438552489  0.5000000000000000
  0.2717066762211873  0.9970142123492176  0.5000000000000000
  0.0050161232533142  0.4614833393049086  0.5000000000000000
  0.0158843903021618  0.4613639077988773  0.5000000000000000
  0.0161232533142243  0.4833393049086349  0.5000000000000000
  0.0269915203630718  0.4832198734026036  0.5000000000000000
  0.0272303833751344  0.5051952705123611  0.5000000000000000
  0.0380986504239819  0.5050758390063299  0.5000000000000000
  0.0383375134360444  0.5270512361160874  0.5000000000000000
  0.0492057804848920  0.5269318046100562  0.5000000000000000
  0.0494446434969545  0.5489072017198137  0.5000000000000000
  0.0603129105458020  0.5487877702137823  0.5000000000000000
  0.0605517735578646  0.5707631673235399  0.5000000000000000
  0.0714200406067120  0.5706437358175086  0.5000000000000000
  0.0716589036187747  0.5926191329272663  0.5000000000000000
  0.0825271706676221  0.5924997014212349  0.5000000000000000
  0.0827660336796848  0.6144750985309927  0.5000000000000000
  0.0936343007285322  0.6143556670249614  0.5000000000000000
  0.0938731637405951  0.6363310641347191  0.5000000000000000
  0.1047414307894424  0.6362116326286876  0.5000000000000000
  0.1049802938015052  0.6581870297384455  0.5000000000000000
  0.1158485608503523  0.6580675982324137  0.5000000000000000
  0.1160874238624149  0.6800429953421712  0.5000000000000000
  0.1269556909112622  0.6799235638361397  0.5000000000000000
  0.1271945539233250  0.7018989609458974  0.5000000000000000
  0.1380628209721723  0.7017795294398660  0.5000000000000000
  0.1383016839842350  0.7237549265496238  0.5000000000000000
  0.1491699510330825  0.7236354950435925  0.5000000000000000
  0.1494088140451453  0.7456108921533502  0.5000000000000000
  0.1602770810939927  0.7454914606473189  0.5000000000000000
  0.1605159441060554  0.7674668577570765  0.5000000000000000
  0.1713842111549028  0.7673474262510451  0.5000000000000000
  0.1716230741669653  0.7893228233608025  0.5000000000000000
  0.1824913412158129  0.7892033918547715  0.5000000000000000
  0.1827302042278753  0.8111787889645288  0.5000000000000000
  0.1935984712767228  0.8110593574584976  0.5000000000000000
  0.1938373342887852  0.8330347545682549  0.5000000000000000
  0.2047056013376332  0.8329153230622243  0.5000000000000000
  0.2049444643496954  0.8548907201719813  0.5000000000000000
  0.2158127313985430  0.8547712886659501  0.5000000000000000
  0.2160515944106058  0.8767466857757078  0.5000000000000000
  0.2269198614594531  0.8766272542696764  0.5000000000000000
  0.2271587244715158  0.8986026513794341  0.5000000000000000
  0.2380269915203631  0.8984832198734027  0.5000000000000000
  0.2382658545324260  0.9204586169831604  0.5000000000000000
  0.2491341215812733  0.9203391854771291  0.5000000000000000
  0.2493729845933358  0.9423145825868866  0.5000000000000000
  0.2602412516421835  0.9421951510808554  0.5000000000000000
  0.2604801146542459  0.9641705481906127  0.5000000000000000
  0.2713483817030933  0.9640511166845817  0.5000000000000000
  0.2715872447151560  0.9860265137943390  0.5000000000000000
  0.2824555117640035  0.9859070822883078  0.5000000000000000
  0.0046578287352204  0.4285202436402724  0.5000000000000000
  0.0155260957840678  0.4284008121342410  0.5000000000000000
  0.0157649587961305  0.4503762092439987  0.5000000000000000
  0.0266332258449779  0.4502567777379672  0.5000000000000000
  0.0268720888570405  0.4722321748477248  0.5000000000000000
  0.0377403559058880  0.4721127433416935  0.5000000000000000
  0.0379792189179506  0.4940881404514511  0.5000000000000000
  0.0488474859667981  0.4939687089454198  0.5000000000000000
  0.0490863489788604  0.5159441060551770  0.5000000000000000
  0.0599546160277081  0.5158246745491459  0.5000000000000000
  0.0601934790397707  0.5378000716589035  0.5000000000000000
  0.0710617460886182  0.5376806401528722  0.5000000000000000
  0.0713006091006808  0.5596560372626299  0.5000000000000000
  0.0821688761495282  0.5595366057565985  0.5000000000000000
  0.0824077391615908  0.5815120028663561  0.5000000000000000
  0.0932760062104383  0.5813925713603247  0.5000000000000000
  0.0935148692225010  0.6033679684700824  0.5000000000000000
  0.1043831362713483  0.6032485369640511  0.5000000000000000
  0.1046219992834111  0.6252239340738088  0.5000000000000000
  0.1154902663322585  0.6251045025677774  0.5000000000000000
  0.1157291293443212  0.6470798996775351  0.5000000000000000
  0.1265973963931687  0.6469604681715038  0.5000000000000000
  0.1268362594052311  0.6689358652812611  0.5000000000000000
  0.1377045264540788  0.6688164337752301  0.5000000000000000
  0.1379433894661411  0.6907918308849874  0.5000000000000000
  0.1488116565149888  0.6906723993789563  0.5000000000000000
  0.1490505195270513  0.7126477964887137  0.5000000000000000
  0.1599187865758987  0.7125283649826823  0.5000000000000000
  0.1601576495879612  0.7345037620924399  0.5000000000000000